Maximize
  NxS_e0 + NxS_e1 + NxS_e2 + NxS_e3 + NxS_e4 + NxS_e6 + NxS_e7 + NxS_e8 + NxS_e9 + NxS_e10 + NxS_e11 + NxS_e13 + NxS_e14 + NxS_e15 + NxS_e17 + NxS_e19 + NxS_e20
Subject to
  -S_BB_1 + S_e_0 = 0
  -S_BB_1 = 0
  -S_BB_2 + S_e_1 = 0
  -S_BB_2 + S_e_0 + S_e_7 = 0
  -S_BB_3 + S_e_2 + S_e_3 = 0
  -S_BB_3 + S_e_1 + S_e_6 = 0
  -S_BB_4 + S_e_4 = 0
  -S_BB_4 + S_e_2 = 0
  -S_BB_5 + S_e_6 = 0
  -S_BB_5 + S_e_4 = 0
  -S_BB_6 + S_e_7 + S_e_8 = 0
  -S_BB_6 + S_e_3 = 0
  -S_BB_7 + S_e_9 = 0
  -S_BB_7 + S_e_8 = 0
  -S_BB_8 + S_e_10 = 0
  -S_BB_8 + S_e_9 + S_e_19 = 0
  -S_BB_9 + S_e_11 = 0
  -S_BB_9 + S_e_10 + S_e_15 = 0
  -S_BB_10 + S_e_13 + S_e_14 = 0
  -S_BB_10 + S_e_11 = 0
  -S_BB_11 + S_e_15 = 0
  -S_BB_11 + S_e_13 = 0
  -S_BB_12 + S_e_17 = 0
  -S_BB_12 + S_e_14 = 0
  -S_BB_13 = 0
  -S_BB_13 = 0
  -S_BB_14 + S_e_19 + S_e_20 = 0
  -S_BB_14 + S_e_17 = 0
  -S_BB_15 = 0
  -S_BB_15 + S_e_20 = 0
  NxS_e0 - N <= 0
  -131 S_e_0 + NxS_e0 <= 0
  -131 S_e_0 + NxS_e0 - N >= -131
  -130 S_e_0 - N >= -131
  NxS_e1 - N <= 0
  -131 S_e_1 + NxS_e1 <= 0
  -131 S_e_1 + NxS_e1 - N >= -131
  -128 S_e_1 - N >= -131
  NxS_e2 - N <= 0
  -131 S_e_2 + NxS_e2 <= 0
  -131 S_e_2 + NxS_e2 - N >= -131
  -130 S_e_2 - N >= -131
  NxS_e3 - N <= 0
  -131 S_e_3 + NxS_e3 <= 0
  -131 S_e_3 + NxS_e3 - N >= -131
  -128 S_e_3 - N >= -131
  NxS_e4 - N <= 0
  -131 S_e_4 + NxS_e4 <= 0
  -131 S_e_4 + NxS_e4 - N >= -131
  -130 S_e_4 - N >= -131
  NxS_e6 - N <= 0
  -131 S_e_6 + NxS_e6 <= 0
  -131 S_e_6 + NxS_e6 - N >= -131
  -130 S_e_6 - N >= -131
  NxS_e7 - N <= 0
  -131 S_e_7 + NxS_e7 <= 0
  -131 S_e_7 + NxS_e7 - N >= -131
  -129 S_e_7 - N >= -131
  NxS_e8 - N <= 0
  -131 S_e_8 + NxS_e8 <= 0
  -131 S_e_8 + NxS_e8 - N >= -131
  -130 S_e_8 - N >= -131
  NxS_e9 - N <= 0
  -131 S_e_9 + NxS_e9 <= 0
  -131 S_e_9 + NxS_e9 - N >= -131
  -130 S_e_9 - N >= -131
  NxS_e10 - N <= 0
  -131 S_e_10 + NxS_e10 <= 0
  -131 S_e_10 + NxS_e10 - N >= -131
  -112 S_e_10 - N >= -131
  NxS_e11 - N <= 0
  -131 S_e_11 + NxS_e11 <= 0
  -131 S_e_11 + NxS_e11 - N >= -131
  -N >= -131
  NxS_e13 - N <= 0
  -131 S_e_13 + NxS_e13 <= 0
  -131 S_e_13 + NxS_e13 - N >= -131
  -19 S_e_13 - N >= -131
  NxS_e14 - N <= 0
  -131 S_e_14 + NxS_e14 <= 0
  -131 S_e_14 + NxS_e14 - N >= -131
  -112 S_e_14 - N >= -131
  NxS_e15 - N <= 0
  -131 S_e_15 + NxS_e15 <= 0
  -131 S_e_15 + NxS_e15 - N >= -131
  -19 S_e_15 - N >= -131
  NxS_e17 - N <= 0
  -131 S_e_17 + NxS_e17 <= 0
  -131 S_e_17 + NxS_e17 - N >= -131
  -112 S_e_17 - N >= -131
  NxS_e19 - N <= 0
  -131 S_e_19 + NxS_e19 <= 0
  -131 S_e_19 + NxS_e19 - N >= -131
  -113 S_e_19 - N >= -131
  NxS_e20 - N <= 0
  -131 S_e_20 + NxS_e20 <= 0
  -131 S_e_20 + NxS_e20 - N >= -131
  -130 S_e_20 - N >= -131
  S_e_6 + S_e_7 + S_e_15 + S_e_19 = 1
Bounds
  0 <= NxS_e0 <= 1
  0 <= NxS_e1 <= 3
  0 <= NxS_e2 <= 1
  0 <= NxS_e3 <= 3
  0 <= NxS_e4 <= 1
  0 <= NxS_e6 <= 1
  0 <= NxS_e7 <= 2
  0 <= NxS_e8 <= 1
  0 <= NxS_e9 <= 1
  0 <= NxS_e10 <= 19
  0 <= NxS_e11 <= 131
  0 <= NxS_e13 <= 112
  0 <= NxS_e14 <= 19
  0 <= NxS_e15 <= 112
  0 <= NxS_e17 <= 19
  0 <= NxS_e19 <= 18
  0 <= NxS_e20 <= 1
  0 <= N <= 131
General
  N
Binary
  S_BB_1 S_BB_2 S_BB_3 S_BB_4 S_BB_5 S_BB_6 S_BB_7 S_BB_8 S_BB_9 S_BB_10 S_BB_11 S_BB_12 S_BB_13 S_BB_14 S_BB_15 S_e_0 S_e_1 S_e_2 S_e_3 S_e_4 S_e_6 S_e_7 S_e_8 S_e_9 S_e_10 S_e_11 S_e_13 S_e_14 S_e_15 S_e_17 S_e_19 S_e_20
End
